NAME: tsp15_8
COMMENT: 15-tsp problem (Padberg/Rinaldi)
TYPE: TSP
DIMENSION: 15
EDGE_WEIGHT_TYPE : EUC_2D
NODE_COORD_SECTION
1 6 6
2 26 39
3 12 28
4 25 2
5 14 38
6 14 2
7 1 24
8 29 6
9 19 18
10 26 3
11 28 21
12 31 17
13 0 1
14 38 29
15 4 9
